Traveling Salesman Problem/TSP_generados/Aleatorio1621103532_15.tsp
NAME: Aleatorio1621103532_15.tsp
COMMENT: Randomly generated scenario
TYPE: TSP
DIMENSION: 15
EDGE_WEIGHT_TYPE: ATT
NODE_COORD_SECTION
1 49.07 35.06
2 35.71 46.59
3 17.67 10.98
4 22.48 25.0
5 7.53 14.51
6 29.94 22.93
7 37.41 32.99
8 49.71 27.57
9 1.04 30.03
10 36.0 39.06
11 24.09 5.77
12 35.31 37.1
13 33.31 40.78
14 31.57 31.97
15 14.36 46.12
