Traveling Salesman Problem/TSP_generados/Aleatorio1621103532_15.opt.tour
NAME: Aleatorio1621103532_15.opt.tour
COMMENT: Optimal solution for Aleatorio1621103532_15 (166.64967325092428)
TYPE: TOUR
DIMENSION: 15
TOUR_SECTION
1 12 10 13 2 15 9 5 3 11 4 6 14 7 8
-1
EOF
